NAME: random_50_6
TYPE: TSP
COMMENT: random_50_6
DIMENSION: 50
EDGE_WEIGHT_TYPE: EUC_2D
NODE_COORD_SECTION
1 453 399
2 150 431
3 1 80
4 476 394
5 86 99
6 192 201
7 454 388
8 486 337
9 237 381
10 324 20
11 93 487
12 264 470
13 438 310
14 124 377
15 231 467
16 395 112
17 201 354
18 406 20
19 14 4
20 469 102
21 277 306
22 259 373
23 495 463
24 458 61
25 374 198
26 140 248
27 413 373
28 60 39
29 466 0
30 374 46
31 121 202
32 212 48
33 192 206
34 312 54
35 152 311
36 355 90
37 264 267
38 316 195
39 199 417
40 392 274
41 202 295
42 375 240
43 215 274
44 42 280
45 451 121
46 482 248
47 393 295
48 285 367
49 115 219
50 132 344
